NAME : Unnamed.761.tour
COMMENT : Length = 761
COMMENT : Found by LKH [Keld Helsgaun] Tue Jan 13 16:45:13 2015
TYPE : TOUR
DIMENSION : 100
TOUR_SECTION
1
49
93
13
41
59
54
84
40
27
78
5
9
32
100
88
66
68
36
28
44
20
11
16
39
75
46
22
85
67
58
42
52
72
29
79
61
10
47
77
31
17
76
51
99
89
87
96
25
6
91
82
97
26
80
63
86
57
7
95
94
62
50
74
15
33
92
64
69
37
71
56
65
23
4
45
21
70
60
90
19
18
34
81
48
30
55
73
3
24
83
8
12
14
38
43
2
35
53
98
-1
EOF
